138479
75 0 2 1 20 21 27 26 25 24 32 30 31 35 34 33 18 19 7 8 10 71 72 60 61 62 58 59 56 57 51 50 52 53 55 54 73 74 4 3 6 5 12 13 17 15 37 36 39 38 16 14 68 69 70 67 45 65 64 63 49 48 42 41 43 44 47 46 66 11 9 28 29 40 22 23 
